 Code  1933
 Dimension, Fixed Cost
   100        3000
 Facility, Client, Transportation Cost
     1        6           1
     1       11           4
     1       45           2
     1       52           4
     1       62           0
     1       63           0
     1       69           4
     1       77           2
     1       85           0
     1       94           2
     2       20           0
     2       28           3
     2       37           0
     2       38           3
     2       48           3
     2       66           2
     2       68           1
     2       71           2
     2       72           2
     2       75           4
     3        5           2
     3       13           2
     3       15           4
     3       17           4
     3       24           3
     3       25           3
     3       32           2
     3       42           2
     3       62           1
     3       70           4
     4        5           2
     4       18           0
     4       20           1
     4       24           1
     4       33           2
     4       34           4
     4       38           3
     4       59           2
     4       60           1
     4       61           2
     5       11           0
     5       13           0
     5       50           0
     5       51           1
     5       55           1
     5       56           0
     5       75           4
     5       84           4
     5       87           2
     5       88           3
     6       41           2
     6       45           1
     6       54           3
     6       57           3
     6       60           3
     6       64           0
     6       79           4
     6       84           1
     6       90           2
     6       93           2
     7       17           1
     7       22           4
     7       40           1
     7       41           2
     7       53           3
     7       57           2
     7       58           3
     7       61           1
     7       73           1
     7       76           2
     8       28           4
     8       31           3
     8       46           3
     8       50           4
     8       67           4
     8       80           1
     8       85           0
     8       86           2
     8       93           1
     8       94           3
     9        2           1
     9        3           2
     9        6           3
     9       27           1
     9       41           3
     9       44           3
     9       52           3
     9       55           1
     9       61           3
     9       66           1
    10        1           2
    10        5           2
    10        8           4
    10       32           0
    10       46           2
    10       73           1
    10       81           1
    10       84           3
    10       88           3
    10       91           4
    11       20           2
    11       30           1
    11       41           4
    11       52           0
    11       59           3
    11       64           1
    11       65           4
    11       68           2
    11       72           2
    11       76           0
    12       17           2
    12       18           1
    12       27           4
    12       29           1
    12       35           0
    12       40           1
    12       68           1
    12       83           2
    12       90           0
    12       92           4
    13        5           3
    13       28           2
    13       42           0
    13       57           0
    13       60           0
    13       65           2
    13       88           2
    13       90           4
    13       97           2
    13       99           0
    14       25           3
    14       33           0
    14       43           1
    14       81           2
    14       84           4
    14       94           1
    14       96           2
    14       98           2
    14       99           4
    14      100           0
    15       19           4
    15       35           2
    15       63           2
    15       68           1
    15       71           1
    15       73           4
    15       78           0
    15       95           0
    15       98           3
    15       99           4
    16        4           0
    16        7           1
    16       52           2
    16       58           0
    16       59           1
    16       66           3
    16       88           2
    16       92           4
    16       94           1
    16       95           3
    17       27           1
    17       28           4
    17       32           2
    17       34           0
    17       40           1
    17       48           2
    17       50           4
    17       52           4
    17       63           1
    17       73           4
    18        2           4
    18       11           2
    18       25           3
    18       27           2
    18       51           3
    18       58           2
    18       78           4
    18       80           1
    18       94           0
    18       96           0
    19        8           1
    19        9           3
    19       23           3
    19       57           3
    19       72           1
    19       74           3
    19       89           4
    19       91           0
    19       93           2
    19       94           0
    20       19           0
    20       23           2
    20       37           0
    20       38           4
    20       68           3
    20       72           1
    20       73           3
    20       85           3
    20       90           4
    20       94           3
    21        1           3
    21        5           0
    21       18           2
    21       22           3
    21       28           4
    21       65           3
    21       83           3
    21       87           0
    21       88           4
    21       93           0
    22       18           0
    22       33           4
    22       49           4
    22       66           2
    22       68           2
    22       75           2
    22       77           0
    22       81           2
    22       85           1
    22       86           0
    23        7           2
    23        8           4
    23       13           3
    23       26           2
    23       31           2
    23       32           3
    23       34           1
    23       36           4
    23       51           2
    23       54           3
    24       29           0
    24       40           4
    24       42           1
    24       45           4
    24       51           4
    24       53           0
    24       67           3
    24       75           1
    24       77           4
    24       86           0
    25        6           4
    25       11           3
    25       15           1
    25       16           3
    25       19           0
    25       21           0
    25       25           1
    25       28           1
    25       36           2
    25       42           1
    26       14           4
    26       24           4
    26       25           2
    26       32           2
    26       38           1
    26       63           2
    26       64           2
    26       69           4
    26       75           4
    26       81           0
    27        1           1
    27        7           3
    27       21           4
    27       24           4
    27       58           3
    27       75           3
    27       76           4
    27       79           3
    27       91           0
    27       93           1
    28       10           1
    28       21           0
    28       26           2
    28       39           1
    28       73           2
    28       76           3
    28       77           1
    28       88           3
    28       89           3
    28       91           0
    29        2           1
    29       11           3
    29       12           0
    29       23           3
    29       36           1
    29       42           3
    29       48           2
    29       57           3
    29       85           1
    29       89           2
    30        2           3
    30       16           0
    30       25           4
    30       46           4
    30       61           2
    30       63           1
    30       66           2
    30       67           4
    30       76           0
    30       79           3
    31       15           1
    31       27           1
    31       35           4
    31       37           0
    31       43           0
    31       45           3
    31       52           3
    31       66           0
    31       68           0
    31       82           2
    32        9           4
    32       14           1
    32       43           0
    32       56           1
    32       64           0
    32       78           3
    32       90           2
    32       95           0
    32       99           2
    32      100           4
    33       18           2
    33       21           2
    33       38           1
    33       49           2
    33       55           2
    33       72           4
    33       79           4
    33       93           4
    33       97           3
    33       98           2
    34       12           4
    34       41           0
    34       44           1
    34       47           0
    34       51           2
    34       54           0
    34       80           1
    34       82           4
    34       86           0
    34       91           1
    35       19           2
    35       26           4
    35       36           2
    35       86           4
    35       95           4
    35       96           4
    35       97           4
    35       98           0
    35       99           2
    35      100           4
    36        1           0
    36        2           3
    36       12           3
    36       22           4
    36       35           0
    36       37           3
    36       48           2
    36       56           3
    36       60           3
    36       82           0
    37       19           0
    37       22           4
    37       32           0
    37       36           2
    37       44           0
    37       69           0
    37       75           4
    37       81           1
    37       85           0
    37       86           4
    38        4           1
    38        5           0
    38       12           1
    38       13           4
    38       17           0
    38       28           3
    38       35           3
    38       41           1
    38       42           3
    38       52           3
    39        4           3
    39        8           0
    39       14           4
    39       30           3
    39       46           4
    39       48           2
    39       59           0
    39       86           4
    39       88           4
    39       89           2
    40       34           1
    40       36           1
    40       44           3
    40       47           2
    40       56           2
    40       67           1
    40       74           0
    40       92           0
    40       95           3
    40      100           2
    41        5           0
    41       12           4
    41       19           3
    41       21           0
    41       22           4
    41       33           1
    41       41           0
    41       45           3
    41       46           0
    41       73           1
    42        5           2
    42        9           4
    42       12           4
    42       36           0
    42       44           2
    42       48           2
    42       56           3
    42       78           0
    42       79           1
    42       83           1
    43        4           3
    43        7           1
    43       10           4
    43       34           2
    43       56           2
    43       79           1
    43       80           3
    43       81           1
    43       92           0
    43       94           4
    44        3           1
    44       17           2
    44       18           4
    44       24           4
    44       40           0
    44       43           3
    44       47           2
    44       66           3
    44       70           3
    44       91           2
    45       71           1
    45       74           0
    45       76           1
    45       88           2
    45       95           0
    45       96           3
    45       97           2
    45       98           2
    45       99           0
    45      100           1
    46        4           0
    46       13           4
    46       26           1
    46       34           0
    46       73           4
    46       77           2
    46       80           1
    46       82           1
    46       87           4
    46       89           3
    47       10           3
    47       50           1
    47       76           1
    47       78           2
    47       79           2
    47       82           4
    47       83           0
    47       87           2
    47       89           3
    47       93           1
    48        1           2
    48        2           2
    48       15           1
    48       70           3
    48       77           2
    48       84           4
    48       93           4
    48       96           2
    48       98           3
    48      100           3
    49       19           1
    49       20           3
    49       25           3
    49       33           1
    49       48           2
    49       53           1
    49       55           1
    49       58           3
    49       61           1
    49       67           1
    50        6           2
    50        7           1
    50       14           0
    50       23           3
    50       26           0
    50       30           2
    50       34           3
    50       44           3
    50       73           1
    50       78           4
    51       31           1
    51       46           4
    51       50           0
    51       57           4
    51       71           2
    51       84           3
    51       91           3
    51       93           3
    51       95           2
    51       96           2
    52        1           1
    52        6           4
    52       12           0
    52       13           2
    52       16           1
    52       26           1
    52       38           0
    52       40           2
    52       50           0
    52       67           2
    53       11           2
    53       13           3
    53       25           3
    53       34           0
    53       40           1
    53       47           2
    53       83           2
    53       87           4
    53       88           2
    53       97           0
    54        9           0
    54       15           0
    54       19           2
    54       21           1
    54       28           3
    54       38           3
    54       41           1
    54       45           0
    54       54           4
    54       69           4
    55        9           0
    55       15           3
    55       16           4
    55       17           4
    55       18           0
    55       30           3
    55       45           4
    55       49           0
    55       59           4
    55       62           4
    56        7           0
    56        8           1
    56       14           4
    56       21           0
    56       22           3
    56       33           2
    56       39           3
    56       42           4
    56       43           1
    56       46           4
    57        2           0
    57       10           1
    57       29           1
    57       30           3
    57       48           1
    57       74           4
    57       83           1
    57       84           1
    57       85           2
    57       97           2
    58       11           3
    58       19           3
    58       30           2
    58       32           0
    58       37           3
    58       52           4
    58       77           4
    58       79           1
    58       92           0
    58       96           4
    59        8           3
    59       15           1
    59       26           1
    59       27           4
    59       29           2
    59       30           1
    59       33           0
    59       38           3
    59       39           3
    59       53           3
    60        4           4
    60        7           4
    60       29           0
    60       35           1
    60       39           4
    60       52           0
    60       56           3
    60       63           2
    60       65           1
    60       90           1
    61       10           1
    61       20           4
    61       23           0
    61       31           3
    61       52           4
    61       72           4
    61       76           0
    61       77           0
    61       79           1
    61       92           1
    62       22           4
    62       24           3
    62       28           4
    62       32           1
    62       44           3
    62       51           1
    62       57           1
    62       62           4
    62       70           2
    62       75           4
    63       20           0
    63       61           1
    63       66           3
    63       80           0
    63       81           1
    63       89           3
    63       97           2
    63       98           2
    63       99           4
    63      100           1
    64       20           1
    64       22           0
    64       38           0
    64       39           1
    64       48           0
    64       57           2
    64       72           2
    64       80           2
    64       82           4
    64       83           1
    65        9           2
    65       27           1
    65       35           0
    65       46           0
    65       53           2
    65       61           3
    65       69           0
    65       82           1
    65       83           1
    65       96           4
    66        1           3
    66       10           2
    66       16           4
    66       17           3
    66       38           0
    66       45           1
    66       49           1
    66       58           0
    66       62           2
    66       65           0
    67        3           2
    67       15           3
    67       16           3
    67       29           3
    67       31           2
    67       45           1
    67       53           3
    67       55           0
    67       59           1
    67       74           0
    68       13           1
    68       20           0
    68       54           0
    68       57           3
    68       58           0
    68       71           2
    68       94           0
    68       98           3
    68       99           1
    68      100           0
    69       12           1
    69       29           2
    69       35           4
    69       41           3
    69       47           1
    69       55           0
    69       56           4
    69       64           4
    69       70           2
    69       75           1
    70        8           1
    70       14           1
    70       16           2
    70       32           4
    70       39           3
    70       40           2
    70       60           0
    70       65           4
    70       66           0
    70       70           2
    71        8           3
    71       13           3
    71       41           3
    71       49           1
    71       51           3
    71       54           2
    71       68           4
    71       69           3
    71       72           2
    71       74           3
    72        4           4
    72        6           1
    72       32           1
    72       43           4
    72       47           0
    72       78           2
    72       83           1
    72       87           3
    72       89           3
    72       90           3
    73       23           0
    73       27           2
    73       31           0
    73       56           3
    73       59           1
    73       63           0
    73       71           3
    73       75           4
    73       86           3
    73       87           4
    74       11           0
    74       12           2
    74       17           0
    74       21           0
    74       49           1
    74       67           2
    74       76           2
    74       84           3
    74       85           0
    74       97           2
    75        8           1
    75       42           3
    75       48           4
    75       56           2
    75       58           3
    75       79           4
    75       80           3
    75       92           1
    75       99           0
    75      100           1
    76       17           2
    76       20           4
    76       37           3
    76       39           3
    76       43           0
    76       49           0
    76       62           1
    76       67           2
    76       72           0
    76       73           3
    77        3           2
    77       16           0
    77       29           3
    77       50           2
    77       51           1
    77       61           4
    77       63           2
    77       65           4
    77       70           2
    77       78           3
    78        7           0
    78       10           3
    78       18           1
    78       24           2
    78       26           3
    78       46           4
    78       57           1
    78       58           4
    78       74           4
    78       76           3
    79        9           1
    79       15           3
    79       31           2
    79       40           3
    79       45           0
    79       50           1
    79       64           0
    79       69           0
    79       77           1
    79       86           0
    80        3           0
    80        9           2
    80       23           1
    80       35           2
    80       37           2
    80       47           1
    80       50           4
    80       53           2
    80       64           1
    80       71           2
    81        3           2
    81        7           2
    81        9           1
    81       10           0
    81       39           3
    81       54           1
    81       70           4
    81       71           3
    81       74           1
    81       84           4
    82        1           2
    82       16           0
    82       18           4
    82       21           0
    82       22           2
    82       31           4
    82       49           4
    82       54           3
    82       60           0
    82       62           4
    83       23           4
    83       33           2
    83       47           4
    83       60           0
    83       80           1
    83       89           1
    83       90           1
    83       92           4
    83       95           4
    83       97           0
    84        9           2
    84       18           3
    84       42           4
    84       53           2
    84       78           0
    84       83           0
    84       85           4
    84       90           2
    84       98           2
    84       99           0
    85       10           2
    85       23           4
    85       47           3
    85       54           0
    85       55           0
    85       59           2
    85       65           0
    85       72           0
    85       85           2
    85       87           1
    86       11           0
    86       26           2
    86       33           3
    86       53           0
    86       61           1
    86       77           2
    86       91           4
    86       92           4
    86       95           1
    86       96           1
    87       34           0
    87       36           0
    87       43           2
    87       65           3
    87       71           4
    87       87           1
    87       93           4
    87       94           0
    87       98           2
    87      100           2
    88        3           3
    88       30           0
    88       37           1
    88       58           3
    88       62           2
    88       63           4
    88       69           4
    88       87           0
    88       90           3
    88       95           0
    89        3           4
    89       44           3
    89       55           3
    89       62           0
    89       64           2
    89       68           1
    89       69           4
    89       80           1
    89       82           1
    89       91           4
    90        5           1
    90        6           1
    90       11           3
    90       21           1
    90       36           4
    90       43           3
    90       47           4
    90       59           2
    90       62           0
    90       64           2
    91        1           4
    91        4           1
    91        8           2
    91       13           3
    91       15           0
    91       23           0
    91       25           1
    91       27           4
    91       39           3
    91       44           0
    92        2           2
    92        6           1
    92       14           0
    92       24           2
    92       31           3
    92       40           1
    92       51           2
    92       53           3
    92       66           4
    92       74           2
    93        7           1
    93       25           0
    93       29           3
    93       35           2
    93       37           1
    93       39           2
    93       64           0
    93       67           1
    93       69           3
    93       81           4
    94        2           0
    94        3           4
    94        4           1
    94        5           3
    94       14           4
    94       22           2
    94       46           2
    94       67           4
    94       71           4
    94       74           1
    95        6           1
    95       27           2
    95       33           1
    95       42           0
    95       44           2
    95       49           3
    95       55           2
    95       60           1
    95       61           4
    95       70           2
    96        1           0
    96        4           1
    96        6           3
    96       19           3
    96       30           0
    96       37           1
    96       82           2
    96       86           1
    96       88           4
    96       89           3
    97       14           2
    97       17           2
    97       24           2
    97       28           3
    97       29           2
    97       34           3
    97       51           0
    97       55           1
    97       65           4
    97       70           0
    98        3           0
    98       12           0
    98       16           1
    98       20           1
    98       24           2
    98       26           0
    98       30           3
    98       60           3
    98       63           4
    98       82           1
    99        2           3
    99       10           2
    99       31           2
    99       36           3
    99       43           4
    99       49           4
    99       54           1
    99       59           1
    99       60           3
    99       81           3
   100       14           2
   100       50           3
   100       68           0
   100       78           3
   100       81           4
   100       84           4
   100       91           3
   100       92           1
   100       96           2
   100       97           1
